0 0 0 0
0 1 0 0
0 2 2 0
0 3 2 0
0 4 1 1
0 5 1 1
0 6 1 5
0 7 0 6
0 8 2 7
0 9 1 1
0 10 1 9
0 11 2 5
0 12 2 11
0 13 0 9
0 14 2 15
0 15 2 16
0 16 2 6
0 17 2 13
0 18 0 16
0 19 0 19
0 20 2 24
0 21 2 21
0 22 1 24
0 23 2 15
0 24 2 19
0 25 2 20
0 26 1 30
0 27 2 23
0 28 2 26
0 29 1 32
0 30 0 31
0 31 0 34
